
Gurobi 10.0.1 (mac64[arm]) logging started Fri Sep 22 17:25:50 2023

Set parameter LogFile to value "results/scenario_returns/returns_gamma/M_j_c_0/mip_log.txt"
Gurobi Optimizer version 10.0.1 build v10.0.1rc0 (mac64[arm])

CPU model: Apple M1
Thread count: 8 physical cores, 8 logical processors, using up to 8 threads

Optimize a model with 5172 rows, 18879 columns and 73986 nonzeros
Model fingerprint: 0xc0926b8d
Model has 26934 general constraints
Variable types: 3 continuous, 18876 integer (1224 binary)
Coefficient statistics:
  Matrix range     [6e-02, 3e+05]
  Objective range  [9e-02, 2e+05]
  Bounds range     [1e+00, 2e+07]
  RHS range        [2e+03, 2e+04]
  GenCon rhs range [1e+00, 1e+00]
  GenCon coe range [1e+00, 1e+00]

Processing MIP start from previous solve: 0 nodes explored in subMIP, total elapsed time 5s
MIP start from previous solve did not produce a new incumbent solution
Processed MIP start in 6.38 seconds (10.10 work units)

Presolve removed 3572 rows and 13142 columns
Presolve time: 0.74s
Presolved: 1600 rows, 5737 columns, 22948 nonzeros
Presolved model has 4 SOS constraint(s)
Variable types: 0 continuous, 5737 integer (34 binary)

Root simplex log...

Iteration    Objective       Primal Inf.    Dual Inf.      Time
       0    2.0827362e+06   2.618020e+05   0.000000e+00      7s
    6705    6.6016823e+07   0.000000e+00   0.000000e+00      7s

Root relaxation: objective 6.601682e+07, 6705 iterations, 0.07 seconds (0.09 work units)

    Nodes    |    Current Node    |     Objective Bounds      |     Work
 Expl Unexpl |  Obj  Depth IntInf | Incumbent    BestBd   Gap | It/Node Time

     0     0 6.6017e+07    0  313          - 6.6017e+07      -     -    7s
     0     0 6.6150e+07    0  730          - 6.6150e+07      -     -    7s
     0     0 6.6161e+07    0  836          - 6.6161e+07      -     -    7s
     0     0 6.6161e+07    0  840          - 6.6161e+07      -     -    7s
     0     0 6.6161e+07    0  842          - 6.6161e+07      -     -    7s
H    0     0                    7.115268e+07 6.6787e+07  6.14%     -    7s
     0     0 6.6995e+07    0  870 7.1153e+07 6.6995e+07  5.84%     -    7s
H    0     0                    6.988574e+07 6.6995e+07  4.14%     -    7s
     0     0 6.7044e+07    0 1015 6.9886e+07 6.7044e+07  4.07%     -    7s
     0     0 6.7074e+07    0 1042 6.9886e+07 6.7074e+07  4.02%     -    7s
     0     0 6.7136e+07    0 1150 6.9886e+07 6.7136e+07  3.93%     -    7s
     0     0 6.7540e+07    0 1249 6.9886e+07 6.7540e+07  3.36%     -    8s
     0     0 6.7605e+07    0 1243 6.9886e+07 6.7605e+07  3.26%     -    8s
H    0     0                    6.952552e+07 6.7605e+07  2.76%     -    8s
     0     2 6.7605e+07    0 1240 6.9526e+07 6.7605e+07  2.76%     -    8s
H   35    36                    6.952552e+07 6.7605e+07  2.76%  1049    9s
H   38    36                    6.951622e+07 6.7605e+07  2.75%   994    9s
H  110    81                    6.951619e+07 6.7605e+07  2.75%   509    9s
   138    86 6.8055e+07   12  252 6.9516e+07 6.7605e+07  2.75%   473   10s
* 1810   574              26    6.951445e+07 6.9416e+07  0.14%   177   12s
H 1847   361                    6.951445e+07 6.9514e+07  0.00%   174   12s

Cutting planes:
  Gomory: 4
  Cover: 3
  Implied bound: 1021
  MIR: 109
  Flow path: 1
  Inf proof: 18
  Relax-and-lift: 115

Explored 2078 nodes (338807 simplex iterations) in 12.75 seconds (19.85 work units)
Thread count was 8 (of 8 available processors)

Solution count 8: 6.95144e+07 6.95144e+07 6.95162e+07 ... 7.11527e+07

Optimal solution found (tolerance 1.00e-04)
Best objective 6.951444685000e+07, best bound 6.951444332717e+07, gap 0.0000%

Gurobi 10.0.1 (mac64[arm]) logging started Fri Sep 22 17:57:30 2023

Set parameter LogFile to value "results/scenario_returns/returns_gamma/M_j_c_0/mip_log.txt"
Gurobi Optimizer version 10.0.1 build v10.0.1rc0 (mac64[arm])

CPU model: Apple M1
Thread count: 8 physical cores, 8 logical processors, using up to 8 threads

Optimize a model with 5082 rows, 18879 columns and 73716 nonzeros
Model fingerprint: 0xd0c584fc
Model has 26934 general constraints
Variable types: 3 continuous, 18876 integer (1224 binary)
Coefficient statistics:
  Matrix range     [6e-02, 3e+05]
  Objective range  [9e-02, 2e+05]
  Bounds range     [1e+00, 2e+07]
  RHS range        [2e+03, 2e+04]
  GenCon rhs range [1e+00, 1e+00]
  GenCon coe range [1e+00, 1e+00]

MIP start from previous solve produced solution with objective 7.03197e+07 (2.09s)
MIP start from previous solve produced solution with objective 6.73674e+07 (3.06s)
MIP start from previous solve produced solution with objective 6.68253e+07 (3.79s)
MIP start from previous solve produced solution with objective 6.67645e+07 (4.15s)
MIP start from previous solve produced solution with objective 6.67645e+07 (4.41s)
MIP start from previous solve produced solution with objective 6.65503e+07 (4.63s)
MIP start from previous solve produced solution with objective 6.65425e+07 (4.80s)
MIP start from previous solve produced solution with objective 6.6439e+07 (4.86s)
Processing MIP start from previous solve: 319 nodes explored in subMIP, total elapsed time 5s
MIP start from previous solve produced solution with objective 6.63048e+07 (5.94s)
MIP start from previous solve produced solution with objective 6.6295e+07 (6.44s)
MIP start from previous solve produced solution with objective 6.6292e+07 (6.85s)
Loaded MIP start from previous solve with objective 6.6292e+07
Processed MIP start in 6.89 seconds (9.82 work units)

Presolve removed 3455 rows and 13088 columns
Presolve time: 0.73s
Presolved: 1627 rows, 5791 columns, 23111 nonzeros
Presolved model has 4 SOS constraint(s)
Variable types: 0 continuous, 5791 integer (34 binary)

Root simplex log...

Iteration    Objective       Primal Inf.    Dual Inf.      Time
       0    2.5307965e+06   2.846860e+05   0.000000e+00      8s
    6073    6.2797752e+07   0.000000e+00   0.000000e+00      8s

Root relaxation: objective 6.279775e+07, 6073 iterations, 0.06 seconds (0.07 work units)

    Nodes    |    Current Node    |     Objective Bounds      |     Work
 Expl Unexpl |  Obj  Depth IntInf | Incumbent    BestBd   Gap | It/Node Time

     0     0 6.2798e+07    0  319 6.6292e+07 6.2798e+07  5.27%     -    8s
     0     0 6.3081e+07    0  741 6.6292e+07 6.3081e+07  4.84%     -    8s
     0     0 6.3446e+07    0  698 6.6292e+07 6.3446e+07  4.29%     -    8s
     0     0 6.3446e+07    0  844 6.6292e+07 6.3446e+07  4.29%     -    8s
     0     0 6.3459e+07    0  847 6.6292e+07 6.3459e+07  4.27%     -    8s
     0     0 6.3695e+07    0  960 6.6292e+07 6.3695e+07  3.92%     -    8s
     0     0 6.3778e+07    0  832 6.6292e+07 6.3778e+07  3.79%     -    8s
     0     0 6.3793e+07    0 1100 6.6292e+07 6.3793e+07  3.77%     -    8s
     0     0 6.3828e+07    0  988 6.6292e+07 6.3828e+07  3.72%     -    8s
     0     0 6.3948e+07    0  929 6.6292e+07 6.3948e+07  3.54%     -    9s
     0     0 6.4010e+07    0  926 6.6292e+07 6.4010e+07  3.44%     -    9s
     0     2 6.4010e+07    0  925 6.6292e+07 6.4010e+07  3.44%     -    9s
    23    30 6.5656e+07    4  766 6.6292e+07 6.4010e+07  3.44%  1249   10s
   955   108 6.5826e+07    7  488 6.6292e+07 6.5083e+07  1.82%   335   15s
H 1035   108                    6.629199e+07 6.5268e+07  1.54%   328   15s
H 1035   108                    6.629199e+07 6.5268e+07  1.54%   328   15s
H 1323   106                    6.629198e+07 6.5817e+07  0.72%   297   17s
H 1947   561                    6.629198e+07 6.6292e+07  0.00%   225   18s

Cutting planes:
  Gomory: 4
  Cover: 4
  Implied bound: 1057
  MIR: 123
  Flow path: 1
  Inf proof: 20
  Relax-and-lift: 129

Explored 2140 nodes (454852 simplex iterations) in 18.17 seconds (23.19 work units)
Thread count was 8 (of 8 available processors)

Solution count 10: 6.6292e+07 6.6292e+07 6.6292e+07 ... 6.65503e+07

Optimal solution found (tolerance 1.00e-04)
Best objective 6.629197763800e+07, best bound 6.629197577617e+07, gap 0.0000%

Gurobi 10.0.1 (mac64[arm]) logging started Fri Sep 22 19:36:42 2023

Set parameter LogFile to value "results/scenario_returns/returns_gamma/M_j_c_0/mip_log.txt"
Gurobi Optimizer version 10.0.1 build v10.0.1rc0 (mac64[arm])

CPU model: Apple M1
Thread count: 8 physical cores, 8 logical processors, using up to 8 threads

Optimize a model with 5082 rows, 18879 columns and 73716 nonzeros
Model fingerprint: 0x4de1571b
Model has 26934 general constraints
Variable types: 3 continuous, 18876 integer (1224 binary)
Coefficient statistics:
  Matrix range     [6e-02, 3e+05]
  Objective range  [9e-02, 2e+05]
  Bounds range     [1e+00, 2e+07]
  RHS range        [2e+03, 2e+04]
  GenCon rhs range [1e+00, 1e+00]
  GenCon coe range [1e+00, 1e+00]
Presolve removed 3455 rows and 13088 columns
Presolve time: 0.59s
Presolved: 1627 rows, 5791 columns, 23173 nonzeros
Presolved model has 4 SOS constraint(s)
Variable types: 0 continuous, 5791 integer (34 binary)

Root relaxation: objective 6.761875e+07, 5932 iterations, 0.05 seconds (0.07 work units)

    Nodes    |    Current Node    |     Objective Bounds      |     Work
 Expl Unexpl |  Obj  Depth IntInf | Incumbent    BestBd   Gap | It/Node Time

     0     0 6.7619e+07    0  336          - 6.7619e+07      -     -    0s
     0     0 6.7726e+07    0  782          - 6.7726e+07      -     -    0s
     0     0 6.7750e+07    0  794          - 6.7750e+07      -     -    0s
     0     0 6.7750e+07    0  800          - 6.7750e+07      -     -    0s
     0     0 6.7751e+07    0  697          - 6.7751e+07      -     -    0s
H    0     0                    7.419535e+07 6.8103e+07  8.21%     -    0s
     0     0 6.8405e+07    0 1005 7.4195e+07 6.8405e+07  7.80%     -    0s
     0     0 6.8405e+07    0 1091 7.4195e+07 6.8405e+07  7.80%     -    0s
     0     0 6.8405e+07    0 1088 7.4195e+07 6.8405e+07  7.80%     -    0s
     0     0 6.8405e+07    0 1092 7.4195e+07 6.8405e+07  7.80%     -    0s
     0     0 6.8405e+07    0 1101 7.4195e+07 6.8405e+07  7.80%     -    0s
     0     0 6.8405e+07    0 1107 7.4195e+07 6.8405e+07  7.80%     -    1s
     0     0 6.8405e+07    0  903 7.4195e+07 6.8405e+07  7.80%     -    1s
     0     0 6.8560e+07    0  900 7.4195e+07 6.8560e+07  7.60%     -    1s
H    0     0                    7.132875e+07 6.8560e+07  3.88%     -    1s
     0     2 6.8560e+07    0  900 7.1329e+07 6.8560e+07  3.88%     -    1s
H   34    39                    7.121969e+07 6.8728e+07  3.50%  1046    2s
H   38    39                    7.117879e+07 6.8728e+07  3.44%   982    2s
H  274   101                    7.111407e+07 6.9097e+07  2.84%   399    3s
*  297   114              20    7.104642e+07 6.9103e+07  2.74%   387    3s
H  389   111                    7.089439e+07 6.9103e+07  2.53%   348    4s
   712   116 6.9778e+07   10  800 7.0894e+07 6.9778e+07  1.58%   314    5s
H 1018    63                    7.083944e+07 7.0765e+07  0.10%   282    5s
H 1018    63                    7.083943e+07 7.0765e+07  0.10%   282    5s
H 1019    63                    7.082613e+07 7.0765e+07  0.09%   282    5s
H 1030    63                    7.082612e+07 7.0765e+07  0.09%   281    5s

Cutting planes:
  Gomory: 1
  Implied bound: 1217
  MIR: 108
  Flow path: 1
  Inf proof: 4
  Relax-and-lift: 161

Explored 1106 nodes (301074 simplex iterations) in 5.74 seconds (9.11 work units)
Thread count was 8 (of 8 available processors)

Solution count 10: 7.08261e+07 7.08261e+07 7.08394e+07 ... 7.13287e+07

Optimal solution found (tolerance 1.00e-04)
Best objective 7.082612039200e+07, best bound 7.082611965094e+07, gap 0.0000%
Discarded solution information

Gurobi 10.0.1 (mac64[arm]) logging started Sat Sep 23 13:18:13 2023

Set parameter LogFile to value "results/scenario_returns/returns_gamma/M_j_c_0/mip_log.txt"
Gurobi Optimizer version 10.0.1 build v10.0.1rc0 (mac64[arm])

CPU model: Apple M1
Thread count: 8 physical cores, 8 logical processors, using up to 8 threads

Optimize a model with 5082 rows, 18879 columns and 73716 nonzeros
Model fingerprint: 0x4de1571b
Model has 26934 general constraints
Variable types: 3 continuous, 18876 integer (1224 binary)
Coefficient statistics:
  Matrix range     [6e-02, 3e+05]
  Objective range  [9e-02, 2e+05]
  Bounds range     [1e+00, 2e+07]
  RHS range        [2e+03, 2e+04]
  GenCon rhs range [1e+00, 1e+00]
  GenCon coe range [1e+00, 1e+00]
Presolve removed 3455 rows and 13088 columns
Presolve time: 0.52s
Presolved: 1627 rows, 5791 columns, 23173 nonzeros
Presolved model has 4 SOS constraint(s)
Variable types: 0 continuous, 5791 integer (34 binary)

Root relaxation: objective 6.761875e+07, 5932 iterations, 0.05 seconds (0.07 work units)

    Nodes    |    Current Node    |     Objective Bounds      |     Work
 Expl Unexpl |  Obj  Depth IntInf | Incumbent    BestBd   Gap | It/Node Time

     0     0 6.7619e+07    0  336          - 6.7619e+07      -     -    0s
     0     0 6.7726e+07    0  782          - 6.7726e+07      -     -    0s
     0     0 6.7750e+07    0  794          - 6.7750e+07      -     -    0s
     0     0 6.7750e+07    0  800          - 6.7750e+07      -     -    0s
     0     0 6.7751e+07    0  697          - 6.7751e+07      -     -    0s
H    0     0                    7.419535e+07 6.8103e+07  8.21%     -    0s
     0     0 6.8405e+07    0 1005 7.4195e+07 6.8405e+07  7.80%     -    0s
     0     0 6.8405e+07    0 1091 7.4195e+07 6.8405e+07  7.80%     -    0s
     0     0 6.8405e+07    0 1088 7.4195e+07 6.8405e+07  7.80%     -    0s
     0     0 6.8405e+07    0 1092 7.4195e+07 6.8405e+07  7.80%     -    0s
     0     0 6.8405e+07    0 1101 7.4195e+07 6.8405e+07  7.80%     -    0s
     0     0 6.8405e+07    0 1107 7.4195e+07 6.8405e+07  7.80%     -    0s
     0     0 6.8405e+07    0  903 7.4195e+07 6.8405e+07  7.80%     -    0s
     0     0 6.8560e+07    0  900 7.4195e+07 6.8560e+07  7.60%     -    1s
H    0     0                    7.132875e+07 6.8560e+07  3.88%     -    1s
     0     2 6.8560e+07    0  900 7.1329e+07 6.8560e+07  3.88%     -    1s
H   34    39                    7.121969e+07 6.8728e+07  3.50%  1046    2s
H   38    39                    7.117879e+07 6.8728e+07  3.44%   982    2s
H  274   101                    7.111407e+07 6.9097e+07  2.84%   399    3s
*  297   114              20    7.104642e+07 6.9103e+07  2.74%   387    3s
H  389   111                    7.089439e+07 6.9103e+07  2.53%   348    3s
   849    90 7.0819e+07   15   43 7.0894e+07 7.0638e+07  0.36%   299    5s
H 1018    63                    7.083944e+07 7.0765e+07  0.10%   282    5s
H 1018    63                    7.083943e+07 7.0765e+07  0.10%   282    5s
H 1019    63                    7.082613e+07 7.0765e+07  0.09%   282    5s
H 1030    63                    7.082612e+07 7.0765e+07  0.09%   281    5s

Cutting planes:
  Gomory: 1
  Implied bound: 1217
  MIR: 108
  Flow path: 1
  Inf proof: 4
  Relax-and-lift: 161

Explored 1106 nodes (301074 simplex iterations) in 5.38 seconds (9.11 work units)
Thread count was 8 (of 8 available processors)

Solution count 10: 7.08261e+07 7.08261e+07 7.08394e+07 ... 7.13287e+07

Optimal solution found (tolerance 1.00e-04)
Best objective 7.082612039200e+07, best bound 7.082611965094e+07, gap 0.0000%
Discarded solution information

Gurobi 10.0.1 (mac64[arm]) logging started Sat Sep 23 18:37:20 2023

Set parameter LogFile to value "results/scenario_returns/returns_gamma/M_j_c_0/mip_log.txt"
Gurobi Optimizer version 10.0.1 build v10.0.1rc0 (mac64[arm])

CPU model: Apple M1
Thread count: 8 physical cores, 8 logical processors, using up to 8 threads

Optimize a model with 1694 rows, 6293 columns and 24572 nonzeros
Model fingerprint: 0xd685a60c
Model has 8978 general constraints
Variable types: 1 continuous, 6292 integer (408 binary)
Coefficient statistics:
  Matrix range     [6e-02, 3e+05]
  Objective range  [9e-02, 2e+05]
  Bounds range     [1e+00, 2e+07]
  RHS range        [4e+03, 2e+04]
  GenCon rhs range [1e+00, 1e+00]
  GenCon coe range [1e+00, 1e+00]
Presolve removed 67 rows and 502 columns
Presolve time: 0.09s
Presolved: 1627 rows, 5791 columns, 23173 nonzeros
Presolved model has 4 SOS constraint(s)
Variable types: 0 continuous, 5791 integer (34 binary)

Root relaxation: objective 6.761875e+07, 5932 iterations, 0.05 seconds (0.07 work units)

    Nodes    |    Current Node    |     Objective Bounds      |     Work
 Expl Unexpl |  Obj  Depth IntInf | Incumbent    BestBd   Gap | It/Node Time

     0     0 6.7619e+07    0  342          - 6.7619e+07      -     -    0s
     0     0 6.7724e+07    0  760          - 6.7724e+07      -     -    0s
     0     0 6.7747e+07    0  640          - 6.7747e+07      -     -    0s
     0     0 6.7747e+07    0  647          - 6.7747e+07      -     -    0s
     0     0 6.7748e+07    0  761          - 6.7748e+07      -     -    0s
     0     0 6.7748e+07    0  760          - 6.7748e+07      -     -    0s
H    0     0                    7.419535e+07 6.8101e+07  8.21%     -    0s
     0     0 6.8405e+07    0  978 7.4195e+07 6.8405e+07  7.80%     -    0s
H    0     0                    7.417537e+07 6.8405e+07  7.78%     -    0s
     0     0 6.8405e+07    0 1020 7.4175e+07 6.8405e+07  7.78%     -    0s
     0     0 6.8405e+07    0 1062 7.4175e+07 6.8405e+07  7.78%     -    0s
     0     0 6.8405e+07    0 1047 7.4175e+07 6.8405e+07  7.78%     -    0s
     0     0 6.8405e+07    0 1028 7.4175e+07 6.8405e+07  7.78%     -    0s
     0     0 6.8405e+07    0 1029 7.4175e+07 6.8405e+07  7.78%     -    0s
     0     0 6.8405e+07    0 1031 7.4175e+07 6.8405e+07  7.78%     -    0s
     0     0 6.8419e+07    0 1088 7.4175e+07 6.8419e+07  7.76%     -    0s
     0     0 6.8767e+07    0 1079 7.4175e+07 6.8767e+07  7.29%     -    0s
H    0     0                    7.132857e+07 6.8767e+07  3.59%     -    0s
H    0     0                    7.118153e+07 6.8767e+07  3.39%     -    0s
     0     2 6.8767e+07    0 1076 7.1182e+07 6.8767e+07  3.39%     -    0s
H  114    92                    7.098551e+07 6.9155e+07  2.58%   649    2s
*  826   276              28    7.096815e+07 7.0354e+07  0.87%   288    4s
H  868   299                    7.082618e+07 7.0354e+07  0.67%   282    4s
*  954   318              64    7.082615e+07 7.0354e+07  0.67%   265    4s
  1237   291     cutoff   13      7.0826e+07 7.0586e+07  0.34%   241    5s
H 1281   291                    7.082614e+07 7.0606e+07  0.31%   242    5s
H 1407   366                    7.082614e+07 7.0737e+07  0.13%   234    5s
H 1446   366                    7.082614e+07 7.0737e+07  0.13%   230    5s

Cutting planes:
  Gomory: 2
  Implied bound: 1236
  MIR: 96
  Flow path: 1
  Inf proof: 1
  Relax-and-lift: 155

Explored 2009 nodes (357913 simplex iterations) in 5.59 seconds (9.08 work units)
Thread count was 8 (of 8 available processors)

Solution count 10: 7.08261e+07 7.08261e+07 7.08261e+07 ... 7.41754e+07

Optimal solution found (tolerance 1.00e-04)
Best objective 7.082613666400e+07, best bound 7.082118546437e+07, gap 0.0070%
Discarded solution information

Gurobi 10.0.1 (mac64[arm]) logging started Sat Sep 23 18:38:11 2023

Set parameter LogFile to value "results/scenario_returns/returns_gamma/M_j_c_0/mip_log.txt"
Gurobi Optimizer version 10.0.1 build v10.0.1rc0 (mac64[arm])

CPU model: Apple M1
Thread count: 8 physical cores, 8 logical processors, using up to 8 threads

Optimize a model with 5082 rows, 18879 columns and 73716 nonzeros
Model fingerprint: 0x4de1571b
Model has 26934 general constraints
Variable types: 3 continuous, 18876 integer (1224 binary)
Coefficient statistics:
  Matrix range     [6e-02, 3e+05]
  Objective range  [9e-02, 2e+05]
  Bounds range     [1e+00, 2e+07]
  RHS range        [2e+03, 2e+04]
  GenCon rhs range [1e+00, 1e+00]
  GenCon coe range [1e+00, 1e+00]
Presolve removed 3455 rows and 13088 columns
Presolve time: 0.74s
Presolved: 1627 rows, 5791 columns, 23173 nonzeros
Presolved model has 4 SOS constraint(s)
Variable types: 0 continuous, 5791 integer (34 binary)

Root relaxation: objective 6.761875e+07, 5932 iterations, 0.05 seconds (0.07 work units)

    Nodes    |    Current Node    |     Objective Bounds      |     Work
 Expl Unexpl |  Obj  Depth IntInf | Incumbent    BestBd   Gap | It/Node Time

     0     0 6.7619e+07    0  336          - 6.7619e+07      -     -    0s
     0     0 6.7726e+07    0  782          - 6.7726e+07      -     -    0s
     0     0 6.7750e+07    0  794          - 6.7750e+07      -     -    0s
     0     0 6.7750e+07    0  800          - 6.7750e+07      -     -    0s
     0     0 6.7751e+07    0  697          - 6.7751e+07      -     -    0s
H    0     0                    7.419535e+07 6.8103e+07  8.21%     -    1s
     0     0 6.8405e+07    0 1005 7.4195e+07 6.8405e+07  7.80%     -    1s
     0     0 6.8405e+07    0 1091 7.4195e+07 6.8405e+07  7.80%     -    1s
     0     0 6.8405e+07    0 1088 7.4195e+07 6.8405e+07  7.80%     -    1s
     0     0 6.8405e+07    0 1092 7.4195e+07 6.8405e+07  7.80%     -    1s
     0     0 6.8405e+07    0 1101 7.4195e+07 6.8405e+07  7.80%     -    1s
     0     0 6.8405e+07    0 1107 7.4195e+07 6.8405e+07  7.80%     -    1s
     0     0 6.8405e+07    0  903 7.4195e+07 6.8405e+07  7.80%     -    1s
     0     0 6.8560e+07    0  900 7.4195e+07 6.8560e+07  7.60%     -    1s
H    0     0                    7.132875e+07 6.8560e+07  3.88%     -    1s
     0     2 6.8560e+07    0  900 7.1329e+07 6.8560e+07  3.88%     -    1s
H   34    39                    7.121969e+07 6.8728e+07  3.50%  1046    2s
H   38    39                    7.117879e+07 6.8728e+07  3.44%   982    2s
H  274   101                    7.111407e+07 6.9097e+07  2.84%   399    3s
*  297   114              20    7.104642e+07 6.9103e+07  2.74%   387    3s
H  389   111                    7.089439e+07 6.9103e+07  2.53%   348    4s
   626   130 7.0377e+07   10  608 7.0894e+07 6.9773e+07  1.58%   335    5s
H 1018    63                    7.083944e+07 7.0765e+07  0.10%   282    5s
H 1018    63                    7.083943e+07 7.0765e+07  0.10%   282    5s
H 1019    63                    7.082613e+07 7.0765e+07  0.09%   282    5s
H 1030    63                    7.082612e+07 7.0765e+07  0.09%   281    5s

Cutting planes:
  Gomory: 1
  Implied bound: 1217
  MIR: 108
  Flow path: 1
  Inf proof: 4
  Relax-and-lift: 161

Explored 1106 nodes (301074 simplex iterations) in 5.89 seconds (9.11 work units)
Thread count was 8 (of 8 available processors)

Solution count 10: 7.08261e+07 7.08261e+07 7.08394e+07 ... 7.13287e+07

Optimal solution found (tolerance 1.00e-04)
Best objective 7.082612039200e+07, best bound 7.082611965094e+07, gap 0.0000%
Discarded solution information
